language Essence 1.3

letting blksize_delta be function(1 --> 7, 2 --> 9, 3 --> 7, 4 --> 7, 5 --> 7, 6 --> 7, 7 --> 7, 8 --> 7, 9 --> 8)
letting maxcars be function(1 --> 6, 2 --> 6, 3 --> 6, 4 --> 6, 5 --> 7, 6 --> 6, 7 --> 6, 8 --> 6, 9 --> 6)
letting n_cars be 152
letting n_classes be 38
letting n_options be 9
letting quantity be
        function(1 --> 4, 2 --> 4, 3 --> 4, 4 --> 4, 5 --> 4, 6 --> 4, 7 --> 4, 8 --> 4, 9 --> 4, 10 --> 4, 11 --> 4,
                 12 --> 4, 13 --> 4, 14 --> 4, 15 --> 4, 16 --> 4, 17 --> 4, 18 --> 4, 19 --> 4, 20 --> 4, 21 --> 4,
                 22 --> 4, 23 --> 4, 24 --> 4, 25 --> 4, 26 --> 4, 27 --> 4, 28 --> 4, 29 --> 4, 30 --> 4, 31 --> 4,
                 32 --> 4, 33 --> 4, 34 --> 4, 35 --> 4, 36 --> 4, 37 --> 4, 38 --> 4)
letting usage be
        relation((1, 2), (1, 6), (2, 7), (3, 6), (4, 7), (4, 9), (5, 3), (5, 7), (6, 2), (7, 8), (8, 8), (9, 9),
                 (10, 9), (11, 3), (12, 7), (13, 5), (14, 5), (15, 9), (16, 2), (17, 7), (17, 8), (18, 9), (19, 7),
                 (20, 1), (21, 8), (22, 9), (23, 2), (24, 9), (25, 9), (26, 8), (27, 9), (28, 7), (29, 5), (30, 1),
                 (30, 4), (30, 6), (31, 3), (32, 9), (33, 9), (34, 9), (35, 9), (36, 2), (36, 5), (36, 6), (36, 7),
                 (36, 8), (37, 9), (38, 1), (38, 9))
$ Visualisation for usage
$  1  2
$  1  6
$  2  7
$  3  6
$  4  7
$  4  9
$  5  3
$  5  7
$  6  2
$  7  8
$  8  8
$  9  9
$ 10  9
$ 11  3
$ 12  7
$ 13  5
$ 14  5
$ 15  9
$ 16  2
$ 17  7
$ 17  8
$ 18  9
$ 19  7
$ 20  1
$ 21  8
$ 22  9
$ 23  2
$ 24  9
$ 25  9
$ 26  8
$ 27  9
$ 28  7
$ 29  5
$ 30  1
$ 30  4
$ 30  6
$ 31  3
$ 32  9
$ 33  9
$ 34  9
$ 35  9
$ 36  2
$ 36  5
$ 36  6
$ 36  7
$ 36  8
$ 37  9
$ 38  1
$ 38  9

